words_hard_train/5526.qaiger
aag 133 16 0 1 117
2
4
8
12
16
20
24
38
40
54
62
78
94
112
130
146
266
6 3 5
10 6 9
14 10 13
18 14 17
22 18 21
26 23 24
28 25 21
30 28 17
32 30 13
34 10 32
36 26 35
42 38 40
44 39 41
46 43 45
48 37 47
50 36 46
52 49 51
56 54 24
58 24 20
60 59 29
64 61 63
66 60 62
68 65 67
70 56 68
72 71 67
74 29 16
76 75 31
80 77 79
82 76 78
84 81 83
86 73 84
88 87 83
90 31 12
92 91 33
96 93 95
98 92 94
100 97 99
102 89 100
104 103 99
106 33 8
108 32 9
110 107 109
114 111 113
116 110 112
118 115 117
120 105 118
122 121 117
124 109 2
126 108 3
128 125 127
132 129 131
134 128 130
136 133 135
138 123 136
140 139 135
142 127 4
144 143 35
148 145 147
150 144 146
152 149 151
154 141 152
156 155 151
158 52 157
160 53 156
162 159 161
164 19 20
166 165 23
168 140 153
170 169 155
172 167 170
174 166 171
176 173 175
178 15 16
180 179 19
182 122 137
184 183 139
186 181 185
188 180 184
190 187 189
192 11 12
194 193 15
196 104 119
198 197 121
200 195 198
202 194 199
204 201 203
206 2 4
208 207 7
210 72 85
212 211 87
214 209 212
216 55 25
218 217 57
220 219 41
222 218 40
224 221 223
226 208 213
228 224 227
230 7 8
232 231 11
234 88 101
236 235 103
238 233 236
240 228 239
242 215 240
244 57 69
246 245 71
248 247 4
250 246 5
252 249 251
254 232 237
256 252 255
258 242 256
260 204 258
262 191 260
264 176 262
266 163 264
i0 1 x2[2]
i1 1 x2[1]
i2 1 x2[3]
i3 1 x2[4]
i4 1 x2[5]
i5 1 x2[6]
i6 1 x2[7]
i7 2 y2[7]
i8 1 x2[0]
i9 2 y2[0]
i10 2 y2[1]
i11 2 y2[2]
i12 2 y2[3]
i13 2 y2[4]
i14 2 y2[5]
i15 2 y2[6]
o0 bool[0]
c
simplified
  ==
    subtract
      1
      1 x2
    subtract
      2 y2
      reverse
        1 x2
