words_hard_train/5526.qaiger.qdimacs
p cnf 133 352
a 1 2 4 6 8 10 12 20 0
e 3 5 7 9 11 13 14 15 16 17 18 19 21 22 23 24 25 26 27 28 29 30 31 32 33 34 35 36 37 38 39 40 41 42 43 44 45 46 47 48 49 50 51 52 53 54 55 56 57 58 59 60 61 62 63 64 65 66 67 68 69 70 71 72 73 74 75 76 77 78 79 80 81 82 83 84 85 86 87 88 89 90 91 92 93 94 95 96 97 98 99 100 101 102 103 104 105 106 107 108 109 110 111 112 113 114 115 116 117 118 119 120 121 122 123 124 125 126 127 128 129 130 131 132 133 0
1 2 3 0
-1 -3 0
-2 -3 0
-3 4 5 0
3 -5 0
-4 -5 0
-5 6 7 0
5 -7 0
-6 -7 0
-7 8 9 0
7 -9 0
-8 -9 0
-9 10 11 0
9 -11 0
-10 -11 0
11 -12 13 0
-11 -13 0
12 -13 0
12 10 14 0
-12 -14 0
-10 -14 0
-14 8 15 0
14 -15 0
-8 -15 0
-15 6 16 0
15 -16 0
-6 -16 0
-5 -16 17 0
5 -17 0
16 -17 0
-13 17 18 0
13 -18 0
-17 -18 0
-19 -20 21 0
19 -21 0
20 -21 0
19 20 22 0
-19 -22 0
-20 -22 0
21 22 23 0
-21 -23 0
-22 -23 0
18 23 24 0
-18 -24 0
-23 -24 0
-18 -23 25 0
18 -25 0
23 -25 0
24 25 26 0
-24 -26 0
-25 -26 0
-27 -12 28 0
27 -28 0
12 -28 0
-12 -10 29 0
12 -29 0
10 -29 0
29 14 30 0
-29 -30 0
-14 -30 0
30 31 32 0
-30 -32 0
-31 -32 0
-30 -31 33 0
30 -33 0
31 -33 0
32 33 34 0
-32 -34 0
-33 -34 0
-28 -34 35 0
28 -35 0
34 -35 0
35 33 36 0
-35 -36 0
-33 -36 0
14 -8 37 0
-14 -37 0
8 -37 0
37 15 38 0
-37 -38 0
-15 -38 0
38 39 40 0
-38 -40 0
-39 -40 0
-38 -39 41 0
38 -41 0
39 -41 0
40 41 42 0
-40 -42 0
-41 -42 0
36 -42 43 0
-36 -43 0
42 -43 0
43 41 44 0
-43 -44 0
-41 -44 0
15 -6 45 0
-15 -45 0
6 -45 0
45 16 46 0
-45 -46 0
-16 -46 0
46 47 48 0
-46 -48 0
-47 -48 0
-46 -47 49 0
46 -49 0
47 -49 0
48 49 50 0
-48 -50 0
-49 -50 0
44 -50 51 0
-44 -51 0
50 -51 0
51 49 52 0
-51 -52 0
-49 -52 0
16 -4 53 0
-16 -53 0
4 -53 0
-16 4 54 0
16 -54 0
-4 -54 0
53 54 55 0
-53 -55 0
-54 -55 0
55 56 57 0
-55 -57 0
-56 -57 0
-55 -56 58 0
55 -58 0
56 -58 0
57 58 59 0
-57 -59 0
-58 -59 0
52 -59 60 0
-52 -60 0
59 -60 0
60 58 61 0
-60 -61 0
-58 -61 0
54 -1 62 0
-54 -62 0
1 -62 0
-54 1 63 0
54 -63 0
-1 -63 0
62 63 64 0
-62 -64 0
-63 -64 0
64 65 66 0
-64 -66 0
-65 -66 0
-64 -65 67 0
64 -67 0
65 -67 0
66 67 68 0
-66 -68 0
-67 -68 0
61 -68 69 0
-61 -69 0
68 -69 0
69 67 70 0
-69 -70 0
-67 -70 0
63 -2 71 0
-63 -71 0
2 -71 0
71 17 72 0
-71 -72 0
-17 -72 0
72 73 74 0
-72 -74 0
-73 -74 0
-72 -73 75 0
72 -75 0
73 -75 0
74 75 76 0
-74 -76 0
-75 -76 0
70 -76 77 0
-70 -77 0
76 -77 0
77 75 78 0
-77 -78 0
-75 -78 0
-26 78 79 0
26 -79 0
-78 -79 0
26 -78 80 0
-26 -80 0
78 -80 0
79 80 81 0
-79 -81 0
-80 -81 0
9 -10 82 0
-9 -82 0
10 -82 0
82 11 83 0
-82 -83 0
-11 -83 0
-70 76 84 0
70 -84 0
-76 -84 0
84 77 85 0
-84 -85 0
-77 -85 0
83 -85 86 0
-83 -86 0
85 -86 0
-83 85 87 0
83 -87 0
-85 -87 0
86 87 88 0
-86 -88 0
-87 -88 0
7 -8 89 0
-7 -89 0
8 -89 0
89 9 90 0
-89 -90 0
-9 -90 0
-61 68 91 0
61 -91 0
-68 -91 0
91 69 92 0
-91 -92 0
-69 -92 0
90 92 93 0
-90 -93 0
-92 -93 0
-90 -92 94 0
90 -94 0
92 -94 0
93 94 95 0
-93 -95 0
-94 -95 0
5 -6 96 0
-5 -96 0
6 -96 0
96 7 97 0
-96 -97 0
-7 -97 0
-52 59 98 0
52 -98 0
-59 -98 0
98 60 99 0
-98 -99 0
-60 -99 0
97 -99 100 0
-97 -100 0
99 -100 0
-97 99 101 0
97 -101 0
-99 -101 0
100 101 102 0
-100 -102 0
-101 -102 0
-1 -2 103 0
1 -103 0
2 -103 0
103 3 104 0
-103 -104 0
-3 -104 0
-36 42 105 0
36 -105 0
-42 -105 0
105 43 106 0
-105 -106 0
-43 -106 0
104 -106 107 0
-104 -107 0
106 -107 0
27 12 108 0
-27 -108 0
-12 -108 0
108 28 109 0
-108 -109 0
-28 -109 0
109 20 110 0
-109 -110 0
-20 -110 0
-109 -20 111 0
109 -111 0
20 -111 0
110 111 112 0
-110 -112 0
-111 -112 0
-104 106 113 0
104 -113 0
-106 -113 0
-112 113 114 0
112 -114 0
-113 -114 0
3 -4 115 0
-3 -115 0
4 -115 0
115 5 116 0
-115 -116 0
-5 -116 0
-44 50 117 0
44 -117 0
-50 -117 0
117 51 118 0
-117 -118 0
-51 -118 0
116 -118 119 0
-116 -119 0
118 -119 0
-114 119 120 0
114 -120 0
-119 -120 0
107 -120 121 0
-107 -121 0
120 -121 0
28 34 122 0
-28 -122 0
-34 -122 0
122 35 123 0
-122 -123 0
-35 -123 0
123 -2 124 0
-123 -124 0
2 -124 0
-123 2 125 0
123 -125 0
-2 -125 0
124 125 126 0
-124 -126 0
-125 -126 0
-116 118 127 0
116 -127 0
-118 -127 0
-126 127 128 0
126 -128 0
-127 -128 0
-121 -128 129 0
121 -129 0
128 -129 0
-102 -129 130 0
102 -130 0
129 -130 0
95 -130 131 0
-95 -131 0
130 -131 0
-88 -131 132 0
88 -132 0
131 -132 0
81 -132 133 0
-81 -133 0
132 -133 0
133 0
